(set-logic ALL)
(declare-fun var0 () String)
(assert (str.in_re var0 (re.++ (re.union (re.+ (str.to_re "0")) (re.+ (str.to_re "1"))) (re.++ (re.* (re.* (str.to_re "2"))) (re.++ (re.union (re.union (str.to_re "3") (str.to_re "44")) (re.union (str.to_re "555") (str.to_re "66"))) (re.++ (re.* (re.union (str.to_re "77") (str.to_re "88"))) (re.++ (re.+ (re.+ (str.to_re "99"))) (re.++ (re.+ (re.union (str.to_re "a") (str.to_re "bb"))) (re.++ (re.* (re.* (str.to_re "cc"))) (re.++ (re.* (re.union (str.to_re "dd") (str.to_re "ee"))) (re.++ (re.union (re.+ (str.to_re "f")) (re.+ (str.to_re "ggg"))) (re.++ (re.+ (re.union (str.to_re "hhh") (str.to_re "i"))) (re.++ (re.* (re.* (str.to_re "jjj"))) (re.++ (re.+ (re.* (str.to_re "kkk"))) (re.++ (re.* (re.union (str.to_re "ll") (str.to_re "mm"))) (re.++ (re.+ (re.union (str.to_re "nnn") (str.to_re "ooo"))) (re.++ (re.union (re.* (str.to_re "ppp")) (re.* (str.to_re "q"))) (re.++ (re.union (re.union (str.to_re "rr") (str.to_re "ss")) (re.union (str.to_re "tt") (str.to_re "uu"))) (re.++ (re.union (re.* (str.to_re "vv")) (re.* (str.to_re "www"))) (re.++ (re.+ (re.union (str.to_re "x") (str.to_re "yyy"))) (re.++ (re.* (re.union (str.to_re "z") (str.to_re "AAA"))) (re.++ (re.* (re.+ (str.to_re "B"))) (re.++ (re.union (re.* (str.to_re "C")) (re.* (str.to_re "D"))) (re.++ (re.union (re.+ (str.to_re "EEE")) (re.+ (str.to_re "FF"))) (re.++ (re.* (re.+ (str.to_re "G"))) (re.++ (re.* (re.union (str.to_re "HH") (str.to_re "II"))) (re.++ (re.+ (re.* (str.to_re "J"))) (re.++ (re.union (re.* (str.to_re "KK")) (re.* (str.to_re "LLL"))) (re.++ (re.union (re.* (str.to_re "MM")) (re.* (str.to_re "N"))) (re.++ (re.+ (re.* (str.to_re "OOO"))) (re.++ (re.+ (re.union (str.to_re "PPP") (str.to_re "QQQ"))) (re.++ (re.union (re.* (str.to_re "RRR")) (re.* (str.to_re "S"))) (re.++ (re.union (re.* (str.to_re "TTT")) (re.* (str.to_re "U"))) (re.++ (re.+ (re.* (str.to_re "V"))) (re.++ (re.union (re.* (str.to_re "WWW")) (re.* (str.to_re "XX"))) (re.++ (re.+ (re.+ (str.to_re "Y"))) (re.++ (re.+ (re.union (str.to_re "ZZ") (str.to_re "!"))) (re.++ (re.+ (re.union (str.to_re """""") (str.to_re "###"))) (re.++ (re.* (re.+ (str.to_re "$$"))) (re.++ (re.* (re.* (str.to_re "%%"))) (re.++ (re.union (re.+ (str.to_re "&")) (re.+ (str.to_re "'"))) (re.++ (re.* (re.union (str.to_re "(((") (str.to_re "))"))) (re.++ (re.+ (re.* (str.to_re "*"))) (re.++ (re.+ (re.* (str.to_re "+++"))) (re.++ (re.union (re.union (str.to_re ",,,") (str.to_re "--")) (re.union (str.to_re "..") (str.to_re "///"))) (re.++ (re.union (re.* (str.to_re ":::")) (re.* (str.to_re ";;;"))) (re.++ (re.* (re.+ (str.to_re "<<"))) (re.++ (re.union (re.union (str.to_re "==") (str.to_re ">")) (re.union (str.to_re "?") (str.to_re "@"))) (re.++ (re.* (re.* (str.to_re "[["))) (re.++ (re.+ (re.union (str.to_re "\\\\") (str.to_re "]]"))) (re.++ (re.+ (re.union (str.to_re "^") (str.to_re "___"))) (re.+ (re.* (str.to_re "``"))))))))))))))))))))))))))))))))))))))))))))))))))))))
(check-sat)